(set-info :smt-lib-version 2.6)
(set-logic LRA)
(set-info :source |
   Monniaux, David; Quantifier Elimination by Lazy Model Enumeration, CAV 2010
|)
(set-info :category "random")
; ./Mjollnir_examples/B6/formula_252.m
(set-info :status unsat)
(assert
 (forall ((|v17:0| Real) )(forall ((|v16:1| Real) )(forall ((|v15:2| Real) )(forall ((|v14:3| Real) )(forall ((|v13:4| Real) )(forall ((|v12:5| Real) )(exists ((|v11:6| Real) )(exists ((|v10:7| Real) )(exists ((|v9:8| Real) )(exists ((|v8:9| Real) )(exists ((|v7:10| Real) )(exists ((|v6:11| Real) )(forall ((|v5:12| Real) )(forall ((|v4:13| Real) )(forall ((|v3:14| Real) )(forall ((|v2:15| Real) )(forall ((|v1:16| Real) )(forall ((|v0:17| Real) )(let ((?x347 8))
(let ((?x155 14))
(let ((?x596 (* ?x155 |v0:17|)))
(let ((?x37 10))
(let ((?x269 (* ?x37 |v14:3|)))
(let ((?x1111 (+ (+ (+ (* (- 15) |v0:17|) (* 7 |v0:17|)) ?x269) (* (- 8) |v5:12|))))
(let ((?x1116 (+ (+ (+ ?x1111 ?x596) (* (- 5) |v9:8|)) (* (- 9) |v17:0|))))
(let ((?x49 11))
(let ((?x214 3))
(let ((?x1017 (* ?x214 |v1:16|)))
(let ((?x136 9))
(let ((?x556 (* ?x136 |v12:5|)))
(let ((?x207 19))
(let ((?x261 (* ?x207 |v11:6|)))
(let ((?x40 (- 17)))
(let ((?x830 (* ?x40 |v15:2|)))
(let ((?x29 12))
(let ((?x846 (* ?x29 |v12:5|)))
(let ((?x1103 (+ (+ (+ (* 7 |v12:5|) (* (- 6) |v12:5|)) ?x846) ?x830)))
(let ((?x160 (- 6)))
(let ((?x19 17))
(let ((?x844 (* ?x19 |v7:10|)))
(let ((?x1093 (+ (+ (+ (* ?x49 |v5:12|) (* (- 9) |v1:16|)) |v2:15|) (* (- 7) |v0:17|))))
(let (($x1099 (<= (+ (+ (+ ?x1093 (* 15 |v6:11|)) (* ?x160 |v1:16|)) ?x844) ?x160)))
(let ((?x254 (- 5)))
(let ((?x85 (- 12)))
(let ((?x545 (* ?x85 |v6:11|)))
(let ((?x101 18))
(let ((?x633 (* ?x101 |v12:5|)))
(let ((?x1081 (+ (+ (* 15 |v17:0|) (* (- 7) |v2:15|)) (* (- 11) |v12:5|))))
(let ((?x1087 (+ (+ (+ (+ ?x1081 (* ?x40 |v10:7|)) ?x633) (* 2 |v0:17|)) ?x545)))
(let (($x1119 (or (or (<= ?x1087 ?x254) $x1099) (and (<= (+ (+ (+ ?x1103 ?x261) ?x556) ?x1017) ?x49) (<= ?x1116 ?x347)))))
(let ((?x62 4))
(let ((?x876 (* ?x207 |v0:17|)))
(let ((?x1068 (+ (+ (+ (* (- 13) |v2:15|) (* ?x85 |v2:15|)) (* ?x214 |v8:9|)) (* (- 14) |v0:17|))))
(let (($x1074 (<= (+ (+ (+ ?x1068 (* 16 |v12:5|)) ?x876) (* ?x49 |v9:8|)) ?x62)))
(let ((?x442 (* ?x136 |v7:10|)))
(let ((?x1055 (+ (+ (* 0 |v12:5|) (* 7 |v10:7|)) (* (- 9) |v9:8|))))
(let ((?x1060 (+ (+ (+ ?x1055 (* (- 19) |v6:11|)) ?x442) (* 16 |v17:0|))))
(let ((?x10 (- 4)))
(let ((?x184 (- 10)))
(let ((?x460 (* ?x184 |v8:9|)))
(let ((?x300 (- 2)))
(let ((?x755 (* ?x300 |v7:10|)))
(let ((?x24 (- 11)))
(let ((?x88 (* ?x24 |v6:11|)))
(let ((?x75 (- 13)))
(let ((?x1043 (* ?x75 |v2:15|)))
(let ((?x1046 (+ (+ (+ (+ (* ?x19 |v1:16|) (* 5 |v8:9|)) ?x1043) ?x88) ?x755)))
(let ((?x267 (- 14)))
(let ((?x54 (- 3)))
(let ((?x139 (* ?x54 |v3:14|)))
(let ((?x1034 (+ (+ (+ (* (- 8) |v11:6|) (* ?x62 |v10:7|)) (* ?x300 |v8:9|)) ?x139)))
(let ((?x1039 (+ (+ (+ ?x1034 (* 7 |v14:3|)) |v8:9|) (* 5 |v6:11|))))
(let (($x1076 (or (and (<= ?x1039 ?x267) (<= (+ (+ ?x1046 (* ?x207 |v4:13|)) ?x460) ?x10)) (and (<= (+ ?x1060 (* 13 |v4:13|)) ?x37) $x1074))))
(let ((?x367 (* ?x347 |v2:15|)))
(let ((?x1021 (+ (+ (+ ?x1017 (* ?x37 |v6:11|)) (* (- 19) |v4:13|)) (* (- 20) |v2:15|))))
(let (($x1027 (<= (+ (+ (+ ?x1021 (* (- 9) |v6:11|)) (* ?x300 |v10:7|)) ?x367) ?x24)))
(let ((?x1009 (+ (+ (+ (* ?x214 |v7:10|) (* ?x29 |v6:11|)) (* 7 |v12:5|)) (* ?x184 |v12:5|))))
(let ((?x1015 (+ (+ (+ ?x1009 (* ?x160 |v11:6|)) (* (- 15) |v5:12|)) (* (- 7) |v4:13|))))
(let ((?x72 7))
(let ((?x168 2))
(let ((?x169 (* ?x168 |v11:6|)))
(let ((?x127 (- 15)))
(let ((?x187 (* ?x127 |v14:3|)))
(let ((?x211 (- 9)))
(let ((?x498 (* ?x211 |v15:2|)))
(let ((?x228 0))
(let ((?x750 (* ?x228 |v8:9|)))
(let ((?x998 (+ (+ (+ (* (- 1) |v0:17|) (* ?x19 |v10:7|)) (* ?x24 |v2:15|)) ?x750)))
(let ((?x947 (* ?x19 |v4:13|)))
(let ((?x444 (* ?x24 |v9:8|)))
(let ((?x988 (+ (+ (+ (* ?x228 |v3:14|) (* ?x168 |v10:7|)) (* (- 18) |v17:0|)) ?x444)))
(let (($x1003 (and (<= (+ (+ (+ ?x988 (* ?x19 |v9:8|)) (* ?x29 |v15:2|)) ?x947) ?x347) (<= (+ (+ (+ ?x998 ?x498) ?x187) ?x169) ?x72))))
(let ((?x353 (* ?x168 |v9:8|)))
(let ((?x151 (- 19)))
(let ((?x324 (* ?x151 |v7:10|)))
(let ((?x481 (* ?x75 |v14:3|)))
(let ((?x805 (* ?x254 |v4:13|)))
(let ((?x979 (+ (+ (+ (+ (* ?x160 |v12:5|) (* ?x254 |v12:5|)) (* ?x347 |v0:17|)) ?x805) ?x481)))
(let ((?x684 (* ?x184 |v16:1|)))
(let ((?x968 (+ (+ (+ (* ?x214 |v14:3|) (* 6 |v14:3|)) (* ?x75 |v9:8|)) (* 5 |v17:0|))))
(let (($x983 (and (<= (+ (+ (+ ?x968 (* ?x184 |v13:4|)) ?x684) (* ?x300 |v12:5|)) ?x40) (<= (+ (+ ?x979 ?x324) ?x353) ?x49))))
(let ((?x539 (* ?x254 |v1:16|)))
(let ((?x107 (* ?x40 |v11:6|)))
(let ((?x957 (+ (+ (+ (* ?x75 |v12:5|) (* ?x214 |v9:8|)) (* ?x37 |v6:11|)) (* ?x300 |v15:2|))))
(let ((?x888 (* ?x40 |v14:3|)))
(let ((?x203 (- 8)))
(let ((?x717 (* ?x203 |v2:15|)))
(let ((?x948 (+ (+ (+ (+ (* ?x85 |v10:7|) (* ?x24 |v15:2|)) (* ?x300 |v8:9|)) ?x717) ?x947)))
(let (($x963 (or (<= (+ (+ ?x948 ?x539) ?x888) ?x24) (<= (+ (+ (+ ?x957 (* ?x155 |v6:11|)) ?x107) ?x539) ?x75))))
(let (($x1121 (and (or (and $x963 $x983) (or $x1003 (or (<= ?x1015 ?x300) $x1027))) (and $x1076 $x1119))))
(let ((?x930 (+ (+ (+ (* ?x75 |v9:8|) (* (- 7) |v3:14|)) (* ?x211 |v14:3|)) (* 16 |v1:16|))))
(let (($x937 (<= (+ (+ (+ ?x930 (* ?x267 |v2:15|)) (* ?x101 |v5:12|)) (* ?x136 |v0:17|)) ?x10)))
(let ((?x406 (* ?x347 |v11:6|)))
(let ((?x474 (* ?x151 |v8:9|)))
(let ((?x488 (* ?x127 |v12:5|)))
(let ((?x922 (+ (+ (+ (+ (* ?x214 |v7:10|) (* ?x347 |v14:3|)) (* ?x19 |v10:7|)) ?x488) (* 6 |v16:1|))))
(let ((?x45 13))
(let ((?x14 (- 7)))
(let ((?x15 (* ?x14 |v11:6|)))
(let ((?x910 (+ (+ (+ (+ ?x406 ?x269) (* ?x19 |v16:1|)) (* ?x211 |v12:5|)) (* 20 |v3:14|))))
(let ((?x317 5))
(let ((?x624 (* ?x317 |v2:15|)))
(let ((?x508 (* ?x29 |v7:10|)))
(let ((?x900 (+ (+ (+ (+ |v9:8| (* ?x54 |v4:13|)) (* ?x62 |v10:7|)) (* ?x24 |v2:15|)) (* 6 |v1:16|))))
(let (($x915 (or (<= (+ (+ ?x900 ?x508) ?x624) ?x267) (<= (+ (+ ?x910 ?x15) (* (- 20) |v12:5|)) ?x45))))
(let ((?x890 (* ?x254 |v12:5|)))
(let ((?x522 (* ?x45 |v12:5|)))
(let ((?x886 (+ (+ (+ (* ?x168 |v17:0|) (* 20 |v8:9|)) (* ?x101 |v7:10|)) ?x367)))
(let (($x940 (and (<= (+ (+ (+ ?x886 ?x522) ?x888) ?x890) 1) (and $x915 (and (<= (+ (+ ?x922 ?x474) ?x406) ?x151) $x937)))))
(let ((?x133 6))
(let ((?x784 (* ?x133 |v13:4|)))
(let ((?x858 (* ?x136 |v11:6|)))
(let ((?x873 (+ (+ (+ (* (- 1) |v9:8|) (* ?x300 |v14:3|)) (* ?x184 |v11:6|)) ?x858)))
(let ((?x861 (+ (+ (+ (* ?x127 |v0:17|) (* ?x72 |v4:13|)) ?x858) (* 20 |v7:10|))))
(let (($x868 (<= (+ (+ (+ ?x861 (* ?x254 |v15:2|)) (* ?x127 |v16:1|)) (* ?x127 |v9:8|)) ?x24)))
(let ((?x33 16))
(let ((?x772 (* ?x72 |v2:15|)))
(let ((?x528 (* ?x267 |v12:5|)))
(let ((?x851 (+ (+ (+ (+ (+ ?x844 (* ?x155 |v13:4|)) ?x846) (* ?x14 |v8:9|)) ?x528) ?x772)))
(let (($x880 (or (or (<= (+ ?x851 (* ?x317 |v3:14|)) ?x33) $x868) (<= (+ (+ (+ ?x873 (* ?x49 |v8:9|)) ?x876) ?x784) ?x62))))
(let ((?x543 (* ?x155 |v8:9|)))
(let ((?x836 (+ (+ (+ (+ ?x830 (* (- 1) |v16:1|)) (* ?x37 |v2:15|)) ?x543) (* ?x214 |v6:11|))))
(let ((?x229 (* ?x228 |v4:13|)))
(let ((?x823 (+ (+ (+ (* ?x207 |v6:11|) (* ?x45 |v17:0|)) (* ?x203 |v14:3|)) (* ?x62 |v8:9|))))
(let (($x842 (and (<= (+ (+ (+ ?x823 (* ?x37 |v13:4|)) ?x229) (* ?x160 |v7:10|)) ?x300) (<= (+ (+ ?x836 (* (- 18) |v6:11|)) (* ?x184 |v9:8|)) ?x254))))
(let ((?x809 (+ (+ (+ (* ?x300 |v14:3|) ?x805) (* ?x33 |v3:14|)) (* (- 18) |v13:4|))))
(let ((?x815 (+ (+ (+ ?x809 (* ?x214 |v3:14|)) (* (- 20) |v13:4|)) (* (- 16) |v12:5|))))
(let ((?x67 (- 1)))
(let ((?x128 (* ?x127 |v7:10|)))
(let ((?x798 (+ (+ (+ (* ?x160 |v14:3|) (* ?x203 |v4:13|)) (* ?x184 |v5:12|)) (* ?x300 |v6:11|))))
(let (($x817 (and (<= (+ (+ (+ ?x798 ?x128) ?x539) (* ?x347 |v17:0|)) ?x67) (<= ?x815 ?x211))))
(let ((?x781 (+ (+ (+ (+ ?x139 (* ?x33 |v13:4|)) (* ?x40 |v13:4|)) (* ?x300 |v1:16|)) (* ?x267 |v16:1|))))
(let ((?x233 (* ?x168 |v10:7|)))
(let ((?x628 (* ?x160 |v4:13|)))
(let ((?x771 (+ (+ (+ (+ (* 20 |v6:11|) ?x556) (* ?x151 |v1:16|)) ?x628) (* ?x72 |v5:12|))))
(let (($x787 (or (<= (+ (+ ?x771 ?x772) ?x233) ?x40) (<= (+ (+ ?x781 (* ?x347 |v9:8|)) ?x784) ?x160))))
(let ((?x701 (* ?x54 |v12:5|)))
(let ((?x758 (+ (+ (+ (* 20 |v11:6|) (* ?x214 |v14:3|)) ?x755) (* ?x203 |v15:2|))))
(let (($x764 (<= (+ (+ (+ ?x758 ?x701) (* (- 16) |v2:15|)) (* ?x29 |v8:9|)) ?x45)))
(let ((?x235 20))
(let ((?x417 (* ?x235 |v5:12|)))
(let ((?x747 (+ (+ (+ (+ (* ?x151 |v0:17|) (* ?x228 |v9:8|)) (* ?x347 |v10:7|)) ?x417) (* ?x267 |v1:16|))))
(let ((?x645 (* ?x317 |v9:8|)))
(let ((?x734 (+ (+ (+ (* ?x19 |v6:11|) (* ?x133 |v7:10|)) (* ?x85 |v2:15|)) (* ?x214 |v15:2|))))
(let ((?x524 (* ?x168 |v8:9|)))
(let ((?x383 (* ?x254 |v17:0|)))
(let ((?x723 (+ (+ (+ (+ ?x717 (* ?x207 |v6:11|)) (* ?x214 |v11:6|)) (* ?x29 |v0:17|)) ?x383)))
(let (($x741 (and (<= (+ (+ ?x723 ?x524) (* (- 20) |v4:13|)) ?x19) (<= (+ (+ (+ ?x734 ?x645) (* ?x300 |v13:4|)) (* ?x29 |v11:6|)) ?x29))))
(let ((?x603 (* ?x24 |v10:7|)))
(let ((?x710 (+ (+ (+ (+ (* ?x19 |v15:2|) ?x261) (* ?x211 |v2:15|)) (* ?x33 |v13:4|)) ?x603)))
(let ((?x571 (* ?x203 |v10:7|)))
(let ((?x663 (* ?x101 |v3:14|)))
(let ((?x699 (+ (+ (+ (* ?x228 |v0:17|) (* ?x127 |v10:7|)) (* ?x37 |v16:1|)) (* ?x62 |v13:4|))))
(let (($x716 (or (<= (+ (+ (+ ?x699 ?x663) ?x701) ?x571) ?x267) (<= (+ (+ ?x710 (* ?x207 |v14:3|)) (* ?x10 |v10:7|)) ?x72))))
(let (($x789 (or (and $x716 $x741) (and (or (<= (+ (+ ?x747 (* ?x72 |v11:6|)) ?x750) ?x168) $x764) $x787))))
(let ((?x683 (+ (+ (+ (* ?x10 |v1:16|) (* ?x184 |v1:16|)) (* ?x136 |v5:12|)) (* ?x136 |v14:3|))))
(let (($x690 (<= (+ (+ (+ ?x683 ?x684) (* ?x136 |v4:13|)) (* (- 16) |v3:14|)) ?x168)))
(let ((?x674 (+ (+ (+ (+ ?x481 ?x498) (* ?x49 |v15:2|)) (* (- 16) |v14:3|)) (* ?x49 |v1:16|))))
(let ((?x58 (- 20)))
(let ((?x660 (+ (+ (+ (* ?x254 |v3:14|) (* ?x228 |v10:7|)) (* ?x72 |v1:16|)) (* ?x254 |v13:4|))))
(let ((?x338 (* ?x10 |v1:16|)))
(let ((?x63 (* ?x62 |v3:14|)))
(let ((?x650 (+ (+ (+ (+ (* ?x49 |v15:2|) ?x645) (* ?x72 |v15:2|)) (* ?x347 |v7:10|)) ?x63)))
(let (($x668 (or (<= (+ (+ ?x650 ?x338) (* ?x133 |v15:2|)) ?x24) (<= (+ (+ (+ ?x660 (* ?x72 |v13:4|)) ?x663) (* ?x133 |v6:11|)) ?x58))))
(let ((?x636 (+ (+ (+ (* (- 18) |v15:2|) (* ?x214 |v5:12|)) ?x633) (* ?x58 |v10:7|))))
(let ((?x623 (+ (+ (+ (* ?x347 |v10:7|) (* ?x45 |v14:3|)) (* ?x19 |v2:15|)) (* ?x160 |v5:12|))))
(let (($x643 (and (<= (+ (+ (+ ?x623 ?x624) (* 15 |v13:4|)) ?x628) ?x67) (<= (+ (+ (+ ?x636 (* ?x267 |v9:8|)) ?x474) (* ?x14 |v7:10|)) ?x45))))
(let ((?x610 (+ (+ (+ (+ (* ?x40 |v9:8|) ?x603) (* ?x75 |v1:16|)) (* ?x85 |v9:8|)) (* ?x133 |v3:14|))))
(let ((?x595 (+ (+ (+ (* ?x58 |v17:0|) (* ?x40 |v8:9|)) (* ?x133 |v9:8|)) (* ?x10 |v6:11|))))
(let (($x616 (or (<= (+ (+ (+ ?x595 ?x596) (* ?x136 |v2:15|)) (* ?x75 |v15:2|)) ?x33) (<= (+ (+ ?x610 (* ?x58 |v7:10|)) (* ?x160 |v15:2|)) ?x214))))
(let (($x693 (and (or $x616 $x643) (or $x668 (and (<= (+ (+ ?x674 (* ?x267 |v13:4|)) |v11:6|) ?x300) $x690)))))
(let ((?x579 (* ?x151 |v4:13|)))
(let ((?x580 (+ (+ (+ (+ ?x139 (* ?x54 |v14:3|)) ?x460) (* (- 16) |v5:12|)) ?x579)))
(let ((?x566 (+ (+ (+ (* (- 16) |v8:9|) (* ?x160 |v12:5|)) (* ?x54 |v7:10|)) (* ?x37 |v9:8|))))
(let ((?x572 (+ (+ (+ ?x566 (* (- 16) |v1:16|)) (* (- 18) |v7:10|)) ?x571)))
(let (($x586 (and (<= ?x572 ?x211) (<= (+ (+ ?x580 (* ?x10 |v12:5|)) (* ?x58 |v11:6|)) ?x45))))
(let ((?x553 (+ (+ (+ (* 15 |v10:7|) (* ?x37 |v15:2|)) (* ?x37 |v11:6|)) (* ?x33 |v5:12|))))
(let ((?x542 (+ (+ (+ (+ (* ?x160 |v10:7|) (* ?x235 |v8:9|)) (* ?x33 |v16:1|)) ?x539) (* ?x211 |v16:1|))))
(let (($x560 (and (<= (+ (+ ?x542 ?x543) ?x545) ?x160) (<= (+ (+ (+ ?x553 (* ?x45 |v0:17|)) ?x556) ?x460) ?x184))))
(let ((?x530 (+ (+ (+ (+ (+ ?x522 (* ?x101 |v16:1|)) ?x524) (* ?x49 |v0:17|)) ?x528) ?x139)))
(let ((?x514 (+ (+ (+ ?x508 (* ?x40 |v4:13|)) (* ?x101 |v16:1|)) (* 15 |v16:1|))))
(let (($x521 (<= (+ (+ (+ ?x514 (* ?x207 |v1:16|)) (* ?x168 |v16:1|)) (* ?x85 |v5:12|)) ?x228)))
(let ((?x504 (* ?x214 |v14:3|)))
(let ((?x501 (+ (+ (+ (+ (* ?x136 |v17:0|) (* ?x155 |v1:16|)) (* ?x49 |v17:0|)) ?x498) (* ?x235 |v9:8|))))
(let ((?x448 (* ?x54 |v7:10|)))
(let ((?x487 (+ (+ (+ (+ (* ?x37 |v10:7|) ?x481) (* 15 |v2:15|)) ?x448) (* ?x168 |v4:13|))))
(let (($x507 (or (<= (+ (+ ?x487 ?x488) (* ?x58 |v15:2|)) ?x235) (<= (+ (+ ?x501 (* ?x62 |v14:3|)) ?x504) ?x49))))
(let ((?x472 (* ?x19 |v15:2|)))
(let ((?x82 (* ?x40 |v9:8|)))
(let ((?x200 (* ?x19 |v1:16|)))
(let ((?x470 (+ (+ (+ (* ?x75 |v8:9|) (* ?x40 |v16:1|)) (* (- 18) |v5:12|)) ?x200)))
(let ((?x457 (+ (+ (+ (* ?x235 |v6:11|) (* ?x300 |v1:16|)) (* ?x254 |v16:1|)) (* ?x168 |v5:12|))))
(let (($x477 (and (<= (+ (+ (+ ?x457 (* ?x101 |v10:7|)) ?x460) (* ?x54 |v13:4|)) ?x40) (<= (+ (+ (+ ?x470 ?x82) ?x472) ?x474) ?x58))))
(let ((?x446 (* ?x347 |v5:12|)))
(let ((?x449 (+ (+ (+ (+ (+ (* ?x45 |v11:6|) (* ?x62 |v11:6|)) ?x442) ?x444) ?x446) ?x448)))
(let ((?x144 (* ?x67 |v12:5|)))
(let ((?x433 (* ?x300 |v1:16|)))
(let ((?x434 (+ (+ (+ (+ (* ?x235 |v6:11|) |v7:10|) (* ?x127 |v17:0|)) (* ?x14 |v3:14|)) ?x433)))
(let (($x452 (or (<= (+ (+ ?x434 ?x144) (* ?x168 |v14:3|)) ?x14) (<= (+ ?x449 ?x446) ?x127))))
(let ((?x158 (* ?x29 |v3:14|)))
(let ((?x420 (+ (+ (+ (+ (* ?x214 |v17:0|) (* ?x300 |v0:17|)) ?x417) (* ?x136 |v1:16|)) |v4:13|)))
(let ((?x411 (* ?x75 |v9:8|)))
(let ((?x392 (* ?x207 |v9:8|)))
(let ((?x407 (+ (+ (+ (* ?x127 |v4:13|) (* 15 |v3:14|)) (* ?x75 |v10:7|)) ?x406)))
(let (($x425 (and (<= (+ (+ (+ ?x407 (* (- 16) |v0:17|)) ?x392) ?x411) ?x10) (<= (+ (+ ?x420 ?x158) (* ?x317 |v15:2|)) ?x203))))
(let ((?x173 (* ?x29 |v13:4|)))
(let ((?x394 (* ?x136 |v1:16|)))
(let ((?x395 (+ (+ (+ (+ (+ (* ?x254 |v2:15|) (* ?x10 |v2:15|)) ?x200) |v12:5|) ?x392) ?x394)))
(let ((?x378 (* ?x49 |v5:12|)))
(let ((?x379 (+ (+ (+ (* (- 18) |v9:8|) (* ?x10 |v11:6|)) (* ?x184 |v1:16|)) ?x378)))
(let (($x398 (and (<= (+ (+ (+ ?x379 (* ?x10 |v4:13|)) ?x261) ?x383) 1) (<= (+ ?x395 ?x173) ?x40))))
(let (($x589 (and (or (or $x398 $x425) (or $x452 $x477)) (and (or $x507 (or $x521 (<= (+ ?x530 ?x338) ?x72))) (or $x560 $x586)))))
(let (($x1123 (and (and $x589 (and $x693 $x789)) (and (or (and (and $x817 $x842) $x880) $x940) $x1121))))
(let ((?x121 (- 16)))
(let ((?x130 (* ?x121 |v15:2|)))
(let ((?x366 (+ (+ (+ (+ (* ?x24 |v15:2|) (* ?x49 |v3:14|)) |v14:3|) ?x130) (* ?x184 |v10:7|))))
(let ((?x354 (+ (+ (+ (+ (* ?x54 |v2:15|) (* ?x347 |v7:10|)) (* ?x33 |v11:6|)) ?x173) ?x353)))
(let ((?x342 (* ?x214 |v5:12|)))
(let ((?x340 (* ?x228 |v9:8|)))
(let ((?x337 (+ (+ (+ (* ?x72 |v10:7|) (* ?x235 |v15:2|)) (* ?x235 |v16:1|)) (* ?x254 |v0:17|))))
(let (($x360 (and (<= (+ (+ (+ ?x337 ?x338) ?x340) ?x342) ?x317) (<= (+ (+ ?x354 (* ?x317 |v5:12|)) (* ?x317 |v11:6|)) ?x168))))
(let ((?x319 (+ (+ (+ (* ?x121 |v11:6|) (* ?x101 |v6:11|)) (* ?x10 |v5:12|)) (* ?x317 |v10:7|))))
(let ((?x208 (* ?x207 |v17:0|)))
(let ((?x303 (* ?x72 |v0:17|)))
(let ((?x304 (+ (+ (+ (* ?x37 |v4:13|) (* (- 18) |v14:3|)) (* ?x300 |v9:8|)) ?x303)))
(let (($x327 (or (<= (+ (+ (+ ?x304 (* ?x151 |v12:5|)) ?x208) (* ?x67 |v13:4|)) ?x168) (<= (+ (+ (+ ?x319 (* ?x67 |v1:16|)) (* ?x235 |v0:17|)) ?x324) ?x29))))
(let ((?x292 (* ?x151 |v0:17|)))
(let ((?x287 (+ (+ (+ (* ?x160 |v13:4|) (* ?x254 |v7:10|)) (* ?x19 |v0:17|)) (* ?x75 |v17:0|))))
(let ((?x73 (* ?x72 |v6:11|)))
(let ((?x276 (+ (+ (+ (+ (* ?x267 |v7:10|) ?x269) (* ?x155 |v5:12|)) (* ?x254 |v8:9|)) (* ?x184 |v14:3|))))
(let (($x295 (or (<= (+ (+ ?x276 (* ?x133 |v12:5|)) ?x73) ?x19) (<= (+ (+ (+ ?x287 (* ?x155 |v11:6|)) (* ?x127 |v2:15|)) ?x292) ?x211))))
(let ((?x259 (* ?x228 |v0:17|)))
(let ((?x257 (* ?x155 |v13:4|)))
(let ((?x258 (+ (+ (+ (+ ?x169 (* ?x10 |v16:1|)) (* ?x37 |v2:15|)) (* ?x254 |v3:14|)) ?x257)))
(let ((?x242 (* ?x33 |v3:14|)))
(let ((?x243 (+ (+ (+ (+ ?x233 (* ?x235 |v8:9|)) (* ?x214 |v0:17|)) (* ?x85 |v0:17|)) ?x242)))
(let (($x264 (or (<= (+ (+ ?x243 (* ?x67 |v15:2|)) (* ?x40 |v7:10|)) ?x37) (<= (+ (+ ?x258 ?x259) ?x261) ?x168))))
(let ((?x117 (- 18)))
(let ((?x225 (* ?x117 |v17:0|)))
(let ((?x221 (* ?x75 |v12:5|)))
(let ((?x224 (+ (+ (+ (+ (* ?x49 |v2:15|) (* ?x19 |v13:4|)) (* ?x14 |v6:11|)) ?x221) (* ?x40 |v5:12|))))
(let ((?x205 (+ (+ (+ (+ (* ?x45 |v16:1|) (* ?x45 |v6:11|)) (* ?x85 |v1:16|)) ?x200) (* ?x203 |v8:9|))))
(let (($x232 (and (<= (+ (+ ?x205 ?x208) (* ?x211 |v11:6|)) ?x214) (<= (+ (+ ?x224 ?x225) ?x229) ?x29))))
(let ((?x185 (* ?x184 |v1:16|)))
(let ((?x186 (+ (+ (+ (+ (* ?x85 |v11:6|) (* ?x24 |v16:1|)) (* ?x24 |v11:6|)) |v17:0|) ?x185)))
(let ((?x170 (+ (+ (+ (+ ?x158 (* ?x160 |v0:17|)) (* ?x24 |v3:14|)) (* ?x117 |v8:9|)) ?x169)))
(let (($x192 (or (<= (+ (+ ?x170 ?x128) ?x173) ?x33) (<= (+ (+ ?x186 ?x187) (* ?x10 |v13:4|)) ?x85))))
(let ((?x146 (* ?x14 |v10:7|)))
(let ((?x153 (+ (+ (+ (+ (+ ?x139 (* ?x29 |v14:3|)) ?x144) ?x146) (* ?x45 |v7:10|)) (* ?x151 |v16:1|))))
(let ((?x134 (* ?x133 |v9:8|)))
(let ((?x124 (* ?x67 |v9:8|)))
(let ((?x129 (+ (+ (+ (+ (* ?x75 |v5:12|) (* ?x117 |v1:16|)) (* ?x121 |v7:10|)) ?x124) ?x128)))
(let (($x193 (or (or (<= (+ (+ ?x129 ?x130) ?x134) ?x136) (<= (+ ?x153 ?x146) ?x155)) $x192)))
(let ((?x11 (* ?x10 |v7:10|)))
(let ((?x103 (+ (+ (+ (* ?x67 |v8:9|) (* ?x33 |v8:9|)) (* ?x58 |v9:8|)) (* ?x101 |v9:8|))))
(let ((?x89 (+ (+ (+ (+ (* ?x62 |v7:10|) (* ?x49 |v15:2|)) ?x82) (* ?x85 |v1:16|)) ?x88)))
(let (($x111 (or (<= (+ (+ ?x89 |v4:13|) (* ?x37 |v0:17|)) ?x62) (<= (+ (+ (+ ?x103 (* ?x29 |v16:1|)) ?x107) ?x11) ?x49))))
(let ((?x60 (+ (+ (+ (* ?x45 |v1:16|) (* ?x49 |v3:14|)) (* ?x54 |v8:9|)) (* ?x58 |v8:9|))))
(let ((?x38 (* ?x37 |v15:2|)))
(let ((?x30 (* ?x29 |v0:17|)))
(let ((?x35 (+ (+ (+ (+ (+ ?x11 ?x15) (* ?x19 |v10:7|)) (* ?x24 |v15:2|)) ?x30) (* ?x33 |v7:10|))))
(let (($x77 (or (<= (+ ?x35 ?x38) ?x40) (<= (+ (+ (+ ?x60 ?x63) (* ?x67 |v2:15|)) ?x73) ?x75))))
(let (($x330 (and (and (and $x77 $x111) $x193) (and (or $x232 $x264) (or $x295 $x327)))))
(or (or (and $x330 $x360) (<= (+ (+ ?x366 ?x367) (* ?x168 |v15:2|)) ?x160)) $x1123)))))))))))))))))))))))))))))))))))))))))))))))))))))))))))))))))))))))))))))))))))))))))))))))))))))))))))))))))))))))))))))))))))))))))))))))))))))))))))))))))))))))))))))))))))))))))))))))))))))))))))))))))))))))))))))))))))))))))))))))))))))))))))))))))))))))))))
)
)
)
)
)
)
)
)
)
)
)
)
)
)
)
)
)
)
(check-sat)
(exit)

